n1 = 5;
adjacent1 = [| 0, 0, 0, 0, 0
| 0, 0, 0, 0, 1
| 0, 0, 0, 1, 0
| 0, 0, 1, 0, 0
| 0, 1, 0, 0, 0 |];
n2 = 5;
adjacent2 = [| 0, 0, 0, 0, 1
| 0, 0, 1, 0, 0
| 0, 1, 0, 0, 0
| 0, 0, 0, 0, 0
| 1, 0, 0, 0, 0 |];
vertexDeletionCost = [45, 45, 45, 45, 45];
vertexInsertionCost = [45, 45, 45, 45, 45];
vertexSubstitutionCost = [| 90, 90, 90, 6.041522986797286, 90
| 90, 37.48332962798263, 90, 90, 20.591260281974
| 35.387144558440994, 90, 64.04100249059192, 90, 90
| 90, 70.66116330771806, 90, 90, 35.4682957019364
| 21.920310216782973, 90, 33.1058907144937, 90, 90 |];
edgeDeletionCost = [| 0.0, 0.0, 0.0, 0.0, 0.0
| 0.0, 0.0, 0.0, 0.0, 15.0
| 0.0, 0.0, 0.0, 15.0, 0.0
| 0.0, 0.0, 15.0, 0.0, 0.0
| 0.0, 15.0, 0.0, 0.0, 0.0 |];
edgeInsertionCost = [| 0.0, 0.0, 0.0, 0.0, 15.0
| 0.0, 0.0, 15.0, 0.0, 0.0
| 0.0, 15.0, 0.0, 0.0, 0.0
| 0.0, 0.0, 0.0, 0.0, 0.0
| 15.0, 0.0, 0.0, 0.0, 0.0 |];
edgeSubstitutionCost = array4d(1..n1, 1..n1, 1..n2, 1..n2, [0, 0, 0, 0, 15.0, 0, 0, 15.0, 0, 0, 0, 15.0, 0, 0, 0, 0, 0, 0, 0, 0, 15.0, 0, 0, 0, 0, 0, 0, 0, 0, 15.0, 0, 0, 15.0, 0, 0, 0, 15.0, 0, 0, 0, 0, 0, 0, 0, 0, 15.0, 0, 0, 0, 0, 0, 0, 0, 0, 15.0, 0, 0, 15.0, 0, 0, 0, 15.0, 0, 0, 0, 0, 0, 0, 0, 0, 15.0, 0, 0, 0, 0, 0, 0, 0, 0, 15.0, 0, 0, 15.0, 0, 0, 0, 15.0, 0, 0, 0, 0, 0, 0, 0, 0, 15.0, 0, 0, 0, 0, 0, 0, 0, 0, 15.0, 0, 0, 15.0, 0, 0, 0, 15.0, 0, 0, 0, 0, 0, 0, 0, 0, 15.0, 0, 0, 0, 0, 0, 0, 0, 0, 15.0, 0, 0, 15.0, 0, 0, 0, 15.0, 0, 0, 0, 0, 0, 0, 0, 0, 15.0, 0, 0, 0, 0, 0, 0, 0, 0, 15.0, 0, 0, 15.0, 0, 0, 0, 15.0, 0, 0, 0, 0, 0, 0, 0, 0, 15.0, 0, 0, 0, 0, 0, 0, 0, 0, 15.0, 0, 0, 15.0, 0, 0, 0, 15.0, 0, 0, 0, 0, 0, 0, 0, 0, 15.0, 0, 0, 0, 0, 0, 0, 0, 0, 15.0, 0, 0, 15.0, 0, 0, 0, 15.0, 0, 0, 0, 0, 0, 0, 0, 0, 15.0, 0, 0, 0, 0, 15.0, 15.0, 15.0, 15.0, 0.0, 15.0, 15.0, 0.0, 15.0, 15.0, 15.0, 0.0, 15.0, 15.0, 15.0, 15.0, 15.0, 15.0, 15.0, 15.0, 0.0, 15.0, 15.0, 15.0, 15.0, 0, 0, 0, 0, 15.0, 0, 0, 15.0, 0, 0, 0, 15.0, 0, 0, 0, 0, 0, 0, 0, 0, 15.0, 0, 0, 0, 0, 0, 0, 0, 0, 15.0, 0, 0, 15.0, 0, 0, 0, 15.0, 0, 0, 0, 0, 0, 0, 0, 0, 15.0, 0, 0, 0, 0, 0, 0, 0, 0, 15.0, 0, 0, 15.0, 0, 0, 0, 15.0, 0, 0, 0, 0, 0, 0, 0, 0, 15.0, 0, 0, 0, 0, 15.0, 15.0, 15.0, 15.0, 0.0, 15.0, 15.0, 0.0, 15.0, 15.0, 15.0, 0.0, 15.0, 15.0, 15.0, 15.0, 15.0, 15.0, 15.0, 15.0, 0.0, 15.0, 15.0, 15.0, 15.0, 0, 0, 0, 0, 15.0, 0, 0, 15.0, 0, 0, 0, 15.0, 0, 0, 0, 0, 0, 0, 0, 0, 15.0, 0, 0, 0, 0, 0, 0, 0, 0, 15.0, 0, 0, 15.0, 0, 0, 0, 15.0, 0, 0, 0, 0, 0, 0, 0, 0, 15.0, 0, 0, 0, 0, 0, 0, 0, 0, 15.0, 0, 0, 15.0, 0, 0, 0, 15.0, 0, 0, 0, 0, 0, 0, 0, 0, 15.0, 0, 0, 0, 0, 15.0, 15.0, 15.0, 15.0, 0.0, 15.0, 15.0, 0.0, 15.0, 15.0, 15.0, 0.0, 15.0, 15.0, 15.0, 15.0, 15.0, 15.0, 15.0, 15.0, 0.0, 15.0, 15.0, 15.0, 15.0, 0, 0, 0, 0, 15.0, 0, 0, 15.0, 0, 0, 0, 15.0, 0, 0, 0, 0, 0, 0, 0, 0, 15.0, 0, 0, 0, 0, 0, 0, 0, 0, 15.0, 0, 0, 15.0, 0, 0, 0, 15.0, 0, 0, 0, 0, 0, 0, 0, 0, 15.0, 0, 0, 0, 0, 0, 0, 0, 0, 15.0, 0, 0, 15.0, 0, 0, 0, 15.0, 0, 0, 0, 0, 0, 0, 0, 0, 15.0, 0, 0, 0, 0, 15.0, 15.0, 15.0, 15.0, 0.0, 15.0, 15.0, 0.0, 15.0, 15.0, 15.0, 0.0, 15.0, 15.0, 15.0, 15.0, 15.0, 15.0, 15.0, 15.0, 0.0, 15.0, 15.0, 15.0, 15.0, 0, 0, 0, 0, 15.0, 0, 0, 15.0, 0, 0, 0, 15.0, 0, 0, 0, 0, 0, 0, 0, 0, 15.0, 0, 0, 0, 0, 0, 0, 0, 0, 15.0, 0, 0, 15.0, 0, 0, 0, 15.0, 0, 0, 0, 0, 0, 0, 0, 0, 15.0, 0, 0, 0, 0, 0, 0, 0, 0, 15.0, 0, 0, 15.0, 0, 0, 0, 15.0, 0, 0, 0, 0, 0, 0, 0, 0, 15.0, 0, 0, 0, 0]);
